NAME : XML100_2136_21
DIMENSION : 101
NB_CLUSTERS : 6
CLUSTERING_ALG : KMedoids
CLUSTERING_PARAMS : k(5)
CLUSTERS
1 0
2 2 9 15 17 23 26 27 31 33 34 35 45 51 59 60 64 67 71 77 81 90 93 97
3 3 10 22 29 38 43 52 57 61 62 73 79 91 100
4 1 11 12 21 25 37 42 44 47 49 53 56 70 75 76 84 85 87 95 99
5 7 13 18 20 28 32 50 54 58 65 66 74 80 86 89 96
6 4 5 6 8 14 16 19 24 30 36 39 40 41 46 48 55 63 68 69 72 78 82 83 88 92 94 98
EOF